%%%mzn-stat: initTime=0.05133021
%%%mzn-stat: objective=230
%%%mzn-stat: nodes=2043
%%%mzn-stat: restarts=0
%%%mzn-stat: peakDepth=1678
%%%mzn-stat: solveTime=0.698271829
%%%mzn-stat: variables=3414
%%%mzn-stat: propagators=2951
%%%mzn-stat: failures=323
%%%mzn-stat: propagations=304463
%%%mzn-stat: nogoods=323
%%%mzn-stat: AverageConflictSize=5.356037151702786
%%%mzn-stat: NumUnitNogoodsLearned=229
%%%mzn-stat: AverageLearnedNogoodLength=31.96904024767802
%%%mzn-stat: AverageBacktrackAmount=0
%%%mzn-stat: AverageLbd=3.5789473684210527
%%%mzn-stat-end
maxleg = 230;
succ = array1d(1..150,[147, 142, 149, 51, 44, 33, 72, 82, 96, 57, 95, 119, 78, 112, 150, 5, 62, 81, 45, 1, 126, 12, 48, 3, 87, 53, 123, 41, 148, 108, 134, 64, 84, 89, 83, 4, 17, 6, 137, 105, 128, 40, 97, 109, 14, 133, 20, 136, 34, 29, 67, 86, 36, 70, 13, 26, 9, 88, 80, 110, 66, 104, 49, 55, 93, 100, 63, 139, 65, 85, 32, 73, 37, 94, 19, 58, 38, 102, 7, 115, 39, 103, 76, 114, 69, 130, 11, 146, 118, 75, 30, 131, 92, 27, 31, 106, 99, 91, 141, 28, 71, 25, 15, 98, 59, 107, 117, 21, 2, 43, 135, 35, 145, 144, 140, 42, 68, 50, 10, 127, 138, 77, 121, 18, 8, 120, 122, 124, 54, 132, 56, 23, 79, 22, 60, 24, 101, 16, 46, 52, 61, 47, 74, 125, 143, 113, 111, 90, 129, 116]);
% time elapsed: 8.70 s
----------
==========
% time elapsed: 8.70 s
%%%mzn-stat: initTime=0.05133021
%%%mzn-stat: objective=230
%%%mzn-stat: nodes=2043
%%%mzn-stat: restarts=0
%%%mzn-stat: peakDepth=1678
%%%mzn-stat: solveTime=0.698284235
%%%mzn-stat: variables=3414
%%%mzn-stat: propagators=2951
%%%mzn-stat: failures=323
%%%mzn-stat: propagations=304463
%%%mzn-stat: nogoods=323
%%%mzn-stat: AverageConflictSize=5.356037151702786
%%%mzn-stat: NumUnitNogoodsLearned=229
%%%mzn-stat: AverageLearnedNogoodLength=31.96904024767802
%%%mzn-stat: AverageBacktrackAmount=0
%%%mzn-stat: AverageLbd=3.5789473684210527
%%%mzn-stat-end
